11
2147483647 66 75 20 13 99 20 2 98 23 26 
66 2147483647 50 48 85 88 93 17 59 60 39 
75 50 2147483647 15 42 19 62 72 39 6 71 
20 48 15 2147483647 14 27 99 92 61 20 87 
13 85 42 14 2147483647 43 86 86 39 23 23 
99 88 19 27 43 2147483647 63 27 13 46 36 
20 93 62 99 86 63 2147483647 35 73 94 7 
2 17 72 92 86 27 35 2147483647 17 22 82 
98 59 39 61 39 13 73 17 2147483647 88 97 
23 60 6 20 23 46 94 22 88 2147483647 40 
26 39 71 87 23 36 7 82 97 40 2147483647 
